p cnf 0 0
c help to minisat to remove posibilities
1 2 0
3 4 0
5 6 0
7 8 0
9 10 0
11 12 0
13 14 0
15 16 0
17 18 0
19 20 0
21 22 0
23 24 0
25 26 0
27 28 0
29 30 0
31 32 0
33 34 0
35 36 0
37 38 0
39 40 0
41 42 0
c proper colo
1 43 44 45 46 47 0
3 48 49 50 51 52 0
5 53 54 55 56 57 0
7 58 59 60 61 62 0
9 63 64 65 66 67 0
11 68 69 70 71 72 0
13 73 74 75 76 77 0
15 78 79 80 81 82 0
17 83 84 85 86 87 0
19 88 89 90 91 92 0
21 93 94 95 96 97 0
23 98 99 100 101 102 0
25 103 104 105 106 107 0
27 108 109 110 111 112 0
29 113 114 115 116 117 0
31 118 119 120 121 122 0
33 123 124 125 126 127 0
35 128 129 130 131 132 0
37 133 134 135 136 137 0
39 138 139 140 141 142 0
41 143 144 145 146 147 0
-43 3 0
-43 13 0
-43 4 14 0
-43 -4 -14 0
43 -3 -13 4 -14 0
43 -3 -13 -4 14 0
-44 5 0
-44 15 0
-44 6 16 0
-44 -6 -16 0
44 -5 -15 6 -16 0
44 -5 -15 -6 16 0
-45 7 0
-45 17 0
-45 8 18 0
-45 -8 -18 0
45 -7 -17 8 -18 0
45 -7 -17 -8 18 0
-46 9 0
-46 19 0
-46 10 20 0
-46 -10 -20 0
46 -9 -19 10 -20 0
46 -9 -19 -10 20 0
-47 11 0
-47 21 0
-47 12 22 0
-47 -12 -22 0
47 -11 -21 12 -22 0
47 -11 -21 -12 22 0
-48 1 0
-48 13 0
-48 2 14 0
-48 -2 -14 0
48 -1 -13 2 -14 0
48 -1 -13 -2 14 0
-49 5 0
-49 23 0
-49 6 24 0
-49 -6 -24 0
49 -5 -23 6 -24 0
49 -5 -23 -6 24 0
-50 7 0
-50 25 0
-50 8 26 0
-50 -8 -26 0
50 -7 -25 8 -26 0
50 -7 -25 -8 26 0
-51 9 0
-51 27 0
-51 10 28 0
-51 -10 -28 0
51 -9 -27 10 -28 0
51 -9 -27 -10 28 0
-52 11 0
-52 29 0
-52 12 30 0
-52 -12 -30 0
52 -11 -29 12 -30 0
52 -11 -29 -12 30 0
-53 1 0
-53 15 0
-53 2 16 0
-53 -2 -16 0
53 -1 -15 2 -16 0
53 -1 -15 -2 16 0
-54 3 0
-54 23 0
-54 4 24 0
-54 -4 -24 0
54 -3 -23 4 -24 0
54 -3 -23 -4 24 0
-55 7 0
-55 31 0
-55 8 32 0
-55 -8 -32 0
55 -7 -31 8 -32 0
55 -7 -31 -8 32 0
-56 9 0
-56 33 0
-56 10 34 0
-56 -10 -34 0
56 -9 -33 10 -34 0
56 -9 -33 -10 34 0
-57 11 0
-57 35 0
-57 12 36 0
-57 -12 -36 0
57 -11 -35 12 -36 0
57 -11 -35 -12 36 0
-58 1 0
-58 17 0
-58 2 18 0
-58 -2 -18 0
58 -1 -17 2 -18 0
58 -1 -17 -2 18 0
-59 3 0
-59 25 0
-59 4 26 0
-59 -4 -26 0
59 -3 -25 4 -26 0
59 -3 -25 -4 26 0
-60 5 0
-60 31 0
-60 6 32 0
-60 -6 -32 0
60 -5 -31 6 -32 0
60 -5 -31 -6 32 0
-61 9 0
-61 37 0
-61 10 38 0
-61 -10 -38 0
61 -9 -37 10 -38 0
61 -9 -37 -10 38 0
-62 11 0
-62 39 0
-62 12 40 0
-62 -12 -40 0
62 -11 -39 12 -40 0
62 -11 -39 -12 40 0
-63 1 0
-63 19 0
-63 2 20 0
-63 -2 -20 0
63 -1 -19 2 -20 0
63 -1 -19 -2 20 0
-64 3 0
-64 27 0
-64 4 28 0
-64 -4 -28 0
64 -3 -27 4 -28 0
64 -3 -27 -4 28 0
-65 5 0
-65 33 0
-65 6 34 0
-65 -6 -34 0
65 -5 -33 6 -34 0
65 -5 -33 -6 34 0
-66 7 0
-66 37 0
-66 8 38 0
-66 -8 -38 0
66 -7 -37 8 -38 0
66 -7 -37 -8 38 0
-67 11 0
-67 41 0
-67 12 42 0
-67 -12 -42 0
67 -11 -41 12 -42 0
67 -11 -41 -12 42 0
-68 1 0
-68 21 0
-68 2 22 0
-68 -2 -22 0
68 -1 -21 2 -22 0
68 -1 -21 -2 22 0
-69 3 0
-69 29 0
-69 4 30 0
-69 -4 -30 0
69 -3 -29 4 -30 0
69 -3 -29 -4 30 0
-70 5 0
-70 35 0
-70 6 36 0
-70 -6 -36 0
70 -5 -35 6 -36 0
70 -5 -35 -6 36 0
-71 7 0
-71 39 0
-71 8 40 0
-71 -8 -40 0
71 -7 -39 8 -40 0
71 -7 -39 -8 40 0
-72 9 0
-72 41 0
-72 10 42 0
-72 -10 -42 0
72 -9 -41 10 -42 0
72 -9 -41 -10 42 0
-73 1 0
-73 3 0
-73 2 4 0
-73 -2 -4 0
73 -1 -3 2 -4 0
73 -1 -3 -2 4 0
-74 15 0
-74 23 0
-74 16 24 0
-74 -16 -24 0
74 -15 -23 16 -24 0
74 -15 -23 -16 24 0
-75 17 0
-75 25 0
-75 18 26 0
-75 -18 -26 0
75 -17 -25 18 -26 0
75 -17 -25 -18 26 0
-76 19 0
-76 27 0
-76 20 28 0
-76 -20 -28 0
76 -19 -27 20 -28 0
76 -19 -27 -20 28 0
-77 21 0
-77 29 0
-77 22 30 0
-77 -22 -30 0
77 -21 -29 22 -30 0
77 -21 -29 -22 30 0
-78 1 0
-78 5 0
-78 2 6 0
-78 -2 -6 0
78 -1 -5 2 -6 0
78 -1 -5 -2 6 0
-79 13 0
-79 23 0
-79 14 24 0
-79 -14 -24 0
79 -13 -23 14 -24 0
79 -13 -23 -14 24 0
-80 17 0
-80 31 0
-80 18 32 0
-80 -18 -32 0
80 -17 -31 18 -32 0
80 -17 -31 -18 32 0
-81 19 0
-81 33 0
-81 20 34 0
-81 -20 -34 0
81 -19 -33 20 -34 0
81 -19 -33 -20 34 0
-82 21 0
-82 35 0
-82 22 36 0
-82 -22 -36 0
82 -21 -35 22 -36 0
82 -21 -35 -22 36 0
-83 1 0
-83 7 0
-83 2 8 0
-83 -2 -8 0
83 -1 -7 2 -8 0
83 -1 -7 -2 8 0
-84 13 0
-84 25 0
-84 14 26 0
-84 -14 -26 0
84 -13 -25 14 -26 0
84 -13 -25 -14 26 0
-85 15 0
-85 31 0
-85 16 32 0
-85 -16 -32 0
85 -15 -31 16 -32 0
85 -15 -31 -16 32 0
-86 19 0
-86 37 0
-86 20 38 0
-86 -20 -38 0
86 -19 -37 20 -38 0
86 -19 -37 -20 38 0
-87 21 0
-87 39 0
-87 22 40 0
-87 -22 -40 0
87 -21 -39 22 -40 0
87 -21 -39 -22 40 0
-88 1 0
-88 9 0
-88 2 10 0
-88 -2 -10 0
88 -1 -9 2 -10 0
88 -1 -9 -2 10 0
-89 13 0
-89 27 0
-89 14 28 0
-89 -14 -28 0
89 -13 -27 14 -28 0
89 -13 -27 -14 28 0
-90 15 0
-90 33 0
-90 16 34 0
-90 -16 -34 0
90 -15 -33 16 -34 0
90 -15 -33 -16 34 0
-91 17 0
-91 37 0
-91 18 38 0
-91 -18 -38 0
91 -17 -37 18 -38 0
91 -17 -37 -18 38 0
-92 21 0
-92 41 0
-92 22 42 0
-92 -22 -42 0
92 -21 -41 22 -42 0
92 -21 -41 -22 42 0
-93 1 0
-93 11 0
-93 2 12 0
-93 -2 -12 0
93 -1 -11 2 -12 0
93 -1 -11 -2 12 0
-94 13 0
-94 29 0
-94 14 30 0
-94 -14 -30 0
94 -13 -29 14 -30 0
94 -13 -29 -14 30 0
-95 15 0
-95 35 0
-95 16 36 0
-95 -16 -36 0
95 -15 -35 16 -36 0
95 -15 -35 -16 36 0
-96 17 0
-96 39 0
-96 18 40 0
-96 -18 -40 0
96 -17 -39 18 -40 0
96 -17 -39 -18 40 0
-97 19 0
-97 41 0
-97 20 42 0
-97 -20 -42 0
97 -19 -41 20 -42 0
97 -19 -41 -20 42 0
-98 3 0
-98 5 0
-98 4 6 0
-98 -4 -6 0
98 -3 -5 4 -6 0
98 -3 -5 -4 6 0
-99 13 0
-99 15 0
-99 14 16 0
-99 -14 -16 0
99 -13 -15 14 -16 0
99 -13 -15 -14 16 0
-100 25 0
-100 31 0
-100 26 32 0
-100 -26 -32 0
100 -25 -31 26 -32 0
100 -25 -31 -26 32 0
-101 27 0
-101 33 0
-101 28 34 0
-101 -28 -34 0
101 -27 -33 28 -34 0
101 -27 -33 -28 34 0
-102 29 0
-102 35 0
-102 30 36 0
-102 -30 -36 0
102 -29 -35 30 -36 0
102 -29 -35 -30 36 0
-103 3 0
-103 7 0
-103 4 8 0
-103 -4 -8 0
103 -3 -7 4 -8 0
103 -3 -7 -4 8 0
-104 13 0
-104 17 0
-104 14 18 0
-104 -14 -18 0
104 -13 -17 14 -18 0
104 -13 -17 -14 18 0
-105 23 0
-105 31 0
-105 24 32 0
-105 -24 -32 0
105 -23 -31 24 -32 0
105 -23 -31 -24 32 0
-106 27 0
-106 37 0
-106 28 38 0
-106 -28 -38 0
106 -27 -37 28 -38 0
106 -27 -37 -28 38 0
-107 29 0
-107 39 0
-107 30 40 0
-107 -30 -40 0
107 -29 -39 30 -40 0
107 -29 -39 -30 40 0
-108 3 0
-108 9 0
-108 4 10 0
-108 -4 -10 0
108 -3 -9 4 -10 0
108 -3 -9 -4 10 0
-109 13 0
-109 19 0
-109 14 20 0
-109 -14 -20 0
109 -13 -19 14 -20 0
109 -13 -19 -14 20 0
-110 23 0
-110 33 0
-110 24 34 0
-110 -24 -34 0
110 -23 -33 24 -34 0
110 -23 -33 -24 34 0
-111 25 0
-111 37 0
-111 26 38 0
-111 -26 -38 0
111 -25 -37 26 -38 0
111 -25 -37 -26 38 0
-112 29 0
-112 41 0
-112 30 42 0
-112 -30 -42 0
112 -29 -41 30 -42 0
112 -29 -41 -30 42 0
-113 3 0
-113 11 0
-113 4 12 0
-113 -4 -12 0
113 -3 -11 4 -12 0
113 -3 -11 -4 12 0
-114 13 0
-114 21 0
-114 14 22 0
-114 -14 -22 0
114 -13 -21 14 -22 0
114 -13 -21 -14 22 0
-115 23 0
-115 35 0
-115 24 36 0
-115 -24 -36 0
115 -23 -35 24 -36 0
115 -23 -35 -24 36 0
-116 25 0
-116 39 0
-116 26 40 0
-116 -26 -40 0
116 -25 -39 26 -40 0
116 -25 -39 -26 40 0
-117 27 0
-117 41 0
-117 28 42 0
-117 -28 -42 0
117 -27 -41 28 -42 0
117 -27 -41 -28 42 0
-118 5 0
-118 7 0
-118 6 8 0
-118 -6 -8 0
118 -5 -7 6 -8 0
118 -5 -7 -6 8 0
-119 15 0
-119 17 0
-119 16 18 0
-119 -16 -18 0
119 -15 -17 16 -18 0
119 -15 -17 -16 18 0
-120 23 0
-120 25 0
-120 24 26 0
-120 -24 -26 0
120 -23 -25 24 -26 0
120 -23 -25 -24 26 0
-121 33 0
-121 37 0
-121 34 38 0
-121 -34 -38 0
121 -33 -37 34 -38 0
121 -33 -37 -34 38 0
-122 35 0
-122 39 0
-122 36 40 0
-122 -36 -40 0
122 -35 -39 36 -40 0
122 -35 -39 -36 40 0
-123 5 0
-123 9 0
-123 6 10 0
-123 -6 -10 0
123 -5 -9 6 -10 0
123 -5 -9 -6 10 0
-124 15 0
-124 19 0
-124 16 20 0
-124 -16 -20 0
124 -15 -19 16 -20 0
124 -15 -19 -16 20 0
-125 23 0
-125 27 0
-125 24 28 0
-125 -24 -28 0
125 -23 -27 24 -28 0
125 -23 -27 -24 28 0
-126 31 0
-126 37 0
-126 32 38 0
-126 -32 -38 0
126 -31 -37 32 -38 0
126 -31 -37 -32 38 0
-127 35 0
-127 41 0
-127 36 42 0
-127 -36 -42 0
127 -35 -41 36 -42 0
127 -35 -41 -36 42 0
-128 5 0
-128 11 0
-128 6 12 0
-128 -6 -12 0
128 -5 -11 6 -12 0
128 -5 -11 -6 12 0
-129 15 0
-129 21 0
-129 16 22 0
-129 -16 -22 0
129 -15 -21 16 -22 0
129 -15 -21 -16 22 0
-130 23 0
-130 29 0
-130 24 30 0
-130 -24 -30 0
130 -23 -29 24 -30 0
130 -23 -29 -24 30 0
-131 31 0
-131 39 0
-131 32 40 0
-131 -32 -40 0
131 -31 -39 32 -40 0
131 -31 -39 -32 40 0
-132 33 0
-132 41 0
-132 34 42 0
-132 -34 -42 0
132 -33 -41 34 -42 0
132 -33 -41 -34 42 0
-133 7 0
-133 9 0
-133 8 10 0
-133 -8 -10 0
133 -7 -9 8 -10 0
133 -7 -9 -8 10 0
-134 17 0
-134 19 0
-134 18 20 0
-134 -18 -20 0
134 -17 -19 18 -20 0
134 -17 -19 -18 20 0
-135 25 0
-135 27 0
-135 26 28 0
-135 -26 -28 0
135 -25 -27 26 -28 0
135 -25 -27 -26 28 0
-136 31 0
-136 33 0
-136 32 34 0
-136 -32 -34 0
136 -31 -33 32 -34 0
136 -31 -33 -32 34 0
-137 39 0
-137 41 0
-137 40 42 0
-137 -40 -42 0
137 -39 -41 40 -42 0
137 -39 -41 -40 42 0
-138 7 0
-138 11 0
-138 8 12 0
-138 -8 -12 0
138 -7 -11 8 -12 0
138 -7 -11 -8 12 0
-139 17 0
-139 21 0
-139 18 22 0
-139 -18 -22 0
139 -17 -21 18 -22 0
139 -17 -21 -18 22 0
-140 25 0
-140 29 0
-140 26 30 0
-140 -26 -30 0
140 -25 -29 26 -30 0
140 -25 -29 -26 30 0
-141 31 0
-141 35 0
-141 32 36 0
-141 -32 -36 0
141 -31 -35 32 -36 0
141 -31 -35 -32 36 0
-142 37 0
-142 41 0
-142 38 42 0
-142 -38 -42 0
142 -37 -41 38 -42 0
142 -37 -41 -38 42 0
-143 9 0
-143 11 0
-143 10 12 0
-143 -10 -12 0
143 -9 -11 10 -12 0
143 -9 -11 -10 12 0
-144 19 0
-144 21 0
-144 20 22 0
-144 -20 -22 0
144 -19 -21 20 -22 0
144 -19 -21 -20 22 0
-145 27 0
-145 29 0
-145 28 30 0
-145 -28 -30 0
145 -27 -29 28 -30 0
145 -27 -29 -28 30 0
-146 33 0
-146 35 0
-146 34 36 0
-146 -34 -36 0
146 -33 -35 34 -36 0
146 -33 -35 -34 36 0
-147 37 0
-147 39 0
-147 38 40 0
-147 -38 -40 0
147 -37 -39 38 -40 0
147 -37 -39 -38 40 0
c Graph as few edges
-148 160 0
-160 148 3 0
-149 161 0
-161 149 3 0
-148 -3 161 0
-161 149 148 0
-150 162 0
-162 150 3 0
-149 -3 162 0
-162 150 149 0
-151 163 0
-163 151 3 0
-150 -3 163 0
-163 151 150 0
-152 164 0
-164 152 3 0
-151 -3 164 0
-164 152 151 0
-153 165 0
-165 153 3 0
-152 -3 165 0
-165 153 152 0
-154 166 0
-166 154 3 0
-153 -3 166 0
-166 154 153 0
-155 167 0
-167 155 3 0
-154 -3 167 0
-167 155 154 0
-156 168 0
-168 156 3 0
-155 -3 168 0
-168 156 155 0
-157 169 0
-169 157 3 0
-156 -3 169 0
-169 157 156 0
-158 170 0
-170 158 3 0
-157 -3 170 0
-170 158 157 0
-159 171 0
-171 159 3 0
-158 -3 171 0
-171 159 158 0
-160 172 0
-172 160 5 0
-161 173 0
-173 161 5 0
-160 -5 173 0
-173 161 160 0
-162 174 0
-174 162 5 0
-161 -5 174 0
-174 162 161 0
-163 175 0
-175 163 5 0
-162 -5 175 0
-175 163 162 0
-164 176 0
-176 164 5 0
-163 -5 176 0
-176 164 163 0
-165 177 0
-177 165 5 0
-164 -5 177 0
-177 165 164 0
-166 178 0
-178 166 5 0
-165 -5 178 0
-178 166 165 0
-167 179 0
-179 167 5 0
-166 -5 179 0
-179 167 166 0
-168 180 0
-180 168 5 0
-167 -5 180 0
-180 168 167 0
-169 181 0
-181 169 5 0
-168 -5 181 0
-181 169 168 0
-170 182 0
-182 170 5 0
-169 -5 182 0
-182 170 169 0
-171 183 0
-183 171 5 0
-170 -5 183 0
-183 171 170 0
-172 184 0
-184 172 7 0
-173 185 0
-185 173 7 0
-172 -7 185 0
-185 173 172 0
-174 186 0
-186 174 7 0
-173 -7 186 0
-186 174 173 0
-175 187 0
-187 175 7 0
-174 -7 187 0
-187 175 174 0
-176 188 0
-188 176 7 0
-175 -7 188 0
-188 176 175 0
-177 189 0
-189 177 7 0
-176 -7 189 0
-189 177 176 0
-178 190 0
-190 178 7 0
-177 -7 190 0
-190 178 177 0
-179 191 0
-191 179 7 0
-178 -7 191 0
-191 179 178 0
-180 192 0
-192 180 7 0
-179 -7 192 0
-192 180 179 0
-181 193 0
-193 181 7 0
-180 -7 193 0
-193 181 180 0
-182 194 0
-194 182 7 0
-181 -7 194 0
-194 182 181 0
-183 195 0
-195 183 7 0
-182 -7 195 0
-195 183 182 0
-184 196 0
-196 184 9 0
-185 197 0
-197 185 9 0
-184 -9 197 0
-197 185 184 0
-186 198 0
-198 186 9 0
-185 -9 198 0
-198 186 185 0
-187 199 0
-199 187 9 0
-186 -9 199 0
-199 187 186 0
-188 200 0
-200 188 9 0
-187 -9 200 0
-200 188 187 0
-189 201 0
-201 189 9 0
-188 -9 201 0
-201 189 188 0
-190 202 0
-202 190 9 0
-189 -9 202 0
-202 190 189 0
-191 203 0
-203 191 9 0
-190 -9 203 0
-203 191 190 0
-192 204 0
-204 192 9 0
-191 -9 204 0
-204 192 191 0
-193 205 0
-205 193 9 0
-192 -9 205 0
-205 193 192 0
-194 206 0
-206 194 9 0
-193 -9 206 0
-206 194 193 0
-195 207 0
-207 195 9 0
-194 -9 207 0
-207 195 194 0
-196 208 0
-208 196 11 0
-197 209 0
-209 197 11 0
-196 -11 209 0
-209 197 196 0
-198 210 0
-210 198 11 0
-197 -11 210 0
-210 198 197 0
-199 211 0
-211 199 11 0
-198 -11 211 0
-211 199 198 0
-200 212 0
-212 200 11 0
-199 -11 212 0
-212 200 199 0
-201 213 0
-213 201 11 0
-200 -11 213 0
-213 201 200 0
-202 214 0
-214 202 11 0
-201 -11 214 0
-214 202 201 0
-203 215 0
-215 203 11 0
-202 -11 215 0
-215 203 202 0
-204 216 0
-216 204 11 0
-203 -11 216 0
-216 204 203 0
-205 217 0
-217 205 11 0
-204 -11 217 0
-217 205 204 0
-206 218 0
-218 206 11 0
-205 -11 218 0
-218 206 205 0
-207 219 0
-219 207 11 0
-206 -11 219 0
-219 207 206 0
-208 220 0
-220 208 13 0
-209 221 0
-221 209 13 0
-208 -13 221 0
-221 209 208 0
-210 222 0
-222 210 13 0
-209 -13 222 0
-222 210 209 0
-211 223 0
-223 211 13 0
-210 -13 223 0
-223 211 210 0
-212 224 0
-224 212 13 0
-211 -13 224 0
-224 212 211 0
-213 225 0
-225 213 13 0
-212 -13 225 0
-225 213 212 0
-214 226 0
-226 214 13 0
-213 -13 226 0
-226 214 213 0
-215 227 0
-227 215 13 0
-214 -13 227 0
-227 215 214 0
-216 228 0
-228 216 13 0
-215 -13 228 0
-228 216 215 0
-217 229 0
-229 217 13 0
-216 -13 229 0
-229 217 216 0
-218 230 0
-230 218 13 0
-217 -13 230 0
-230 218 217 0
-219 231 0
-231 219 13 0
-218 -13 231 0
-231 219 218 0
-220 232 0
-232 220 15 0
-221 233 0
-233 221 15 0
-220 -15 233 0
-233 221 220 0
-222 234 0
-234 222 15 0
-221 -15 234 0
-234 222 221 0
-223 235 0
-235 223 15 0
-222 -15 235 0
-235 223 222 0
-224 236 0
-236 224 15 0
-223 -15 236 0
-236 224 223 0
-225 237 0
-237 225 15 0
-224 -15 237 0
-237 225 224 0
-226 238 0
-238 226 15 0
-225 -15 238 0
-238 226 225 0
-227 239 0
-239 227 15 0
-226 -15 239 0
-239 227 226 0
-228 240 0
-240 228 15 0
-227 -15 240 0
-240 228 227 0
-229 241 0
-241 229 15 0
-228 -15 241 0
-241 229 228 0
-230 242 0
-242 230 15 0
-229 -15 242 0
-242 230 229 0
-231 243 0
-243 231 15 0
-230 -15 243 0
-243 231 230 0
-232 244 0
-244 232 17 0
-233 245 0
-245 233 17 0
-232 -17 245 0
-245 233 232 0
-234 246 0
-246 234 17 0
-233 -17 246 0
-246 234 233 0
-235 247 0
-247 235 17 0
-234 -17 247 0
-247 235 234 0
-236 248 0
-248 236 17 0
-235 -17 248 0
-248 236 235 0
-237 249 0
-249 237 17 0
-236 -17 249 0
-249 237 236 0
-238 250 0
-250 238 17 0
-237 -17 250 0
-250 238 237 0
-239 251 0
-251 239 17 0
-238 -17 251 0
-251 239 238 0
-240 252 0
-252 240 17 0
-239 -17 252 0
-252 240 239 0
-241 253 0
-253 241 17 0
-240 -17 253 0
-253 241 240 0
-242 254 0
-254 242 17 0
-241 -17 254 0
-254 242 241 0
-243 255 0
-255 243 17 0
-242 -17 255 0
-255 243 242 0
-244 256 0
-256 244 19 0
-245 257 0
-257 245 19 0
-244 -19 257 0
-257 245 244 0
-246 258 0
-258 246 19 0
-245 -19 258 0
-258 246 245 0
-247 259 0
-259 247 19 0
-246 -19 259 0
-259 247 246 0
-248 260 0
-260 248 19 0
-247 -19 260 0
-260 248 247 0
-249 261 0
-261 249 19 0
-248 -19 261 0
-261 249 248 0
-250 262 0
-262 250 19 0
-249 -19 262 0
-262 250 249 0
-251 263 0
-263 251 19 0
-250 -19 263 0
-263 251 250 0
-252 264 0
-264 252 19 0
-251 -19 264 0
-264 252 251 0
-253 265 0
-265 253 19 0
-252 -19 265 0
-265 253 252 0
-254 266 0
-266 254 19 0
-253 -19 266 0
-266 254 253 0
-255 267 0
-267 255 19 0
-254 -19 267 0
-267 255 254 0
-256 268 0
-268 256 21 0
-257 269 0
-269 257 21 0
-256 -21 269 0
-269 257 256 0
-258 270 0
-270 258 21 0
-257 -21 270 0
-270 258 257 0
-259 271 0
-271 259 21 0
-258 -21 271 0
-271 259 258 0
-260 272 0
-272 260 21 0
-259 -21 272 0
-272 260 259 0
-261 273 0
-273 261 21 0
-260 -21 273 0
-273 261 260 0
-262 274 0
-274 262 21 0
-261 -21 274 0
-274 262 261 0
-263 275 0
-275 263 21 0
-262 -21 275 0
-275 263 262 0
-264 276 0
-276 264 21 0
-263 -21 276 0
-276 264 263 0
-265 277 0
-277 265 21 0
-264 -21 277 0
-277 265 264 0
-266 278 0
-278 266 21 0
-265 -21 278 0
-278 266 265 0
-267 279 0
-279 267 21 0
-266 -21 279 0
-279 267 266 0
-268 280 0
-280 268 23 0
-269 281 0
-281 269 23 0
-268 -23 281 0
-281 269 268 0
-270 282 0
-282 270 23 0
-269 -23 282 0
-282 270 269 0
-271 283 0
-283 271 23 0
-270 -23 283 0
-283 271 270 0
-272 284 0
-284 272 23 0
-271 -23 284 0
-284 272 271 0
-273 285 0
-285 273 23 0
-272 -23 285 0
-285 273 272 0
-274 286 0
-286 274 23 0
-273 -23 286 0
-286 274 273 0
-275 287 0
-287 275 23 0
-274 -23 287 0
-287 275 274 0
-276 288 0
-288 276 23 0
-275 -23 288 0
-288 276 275 0
-277 289 0
-289 277 23 0
-276 -23 289 0
-289 277 276 0
-278 290 0
-290 278 23 0
-277 -23 290 0
-290 278 277 0
-279 291 0
-291 279 23 0
-278 -23 291 0
-291 279 278 0
-280 292 0
-292 280 25 0
-281 293 0
-293 281 25 0
-280 -25 293 0
-293 281 280 0
-282 294 0
-294 282 25 0
-281 -25 294 0
-294 282 281 0
-283 295 0
-295 283 25 0
-282 -25 295 0
-295 283 282 0
-284 296 0
-296 284 25 0
-283 -25 296 0
-296 284 283 0
-285 297 0
-297 285 25 0
-284 -25 297 0
-297 285 284 0
-286 298 0
-298 286 25 0
-285 -25 298 0
-298 286 285 0
-287 299 0
-299 287 25 0
-286 -25 299 0
-299 287 286 0
-288 300 0
-300 288 25 0
-287 -25 300 0
-300 288 287 0
-289 301 0
-301 289 25 0
-288 -25 301 0
-301 289 288 0
-290 302 0
-302 290 25 0
-289 -25 302 0
-302 290 289 0
-291 303 0
-303 291 25 0
-290 -25 303 0
-303 291 290 0
-292 304 0
-304 292 27 0
-293 305 0
-305 293 27 0
-292 -27 305 0
-305 293 292 0
-294 306 0
-306 294 27 0
-293 -27 306 0
-306 294 293 0
-295 307 0
-307 295 27 0
-294 -27 307 0
-307 295 294 0
-296 308 0
-308 296 27 0
-295 -27 308 0
-308 296 295 0
-297 309 0
-309 297 27 0
-296 -27 309 0
-309 297 296 0
-298 310 0
-310 298 27 0
-297 -27 310 0
-310 298 297 0
-299 311 0
-311 299 27 0
-298 -27 311 0
-311 299 298 0
-300 312 0
-312 300 27 0
-299 -27 312 0
-312 300 299 0
-301 313 0
-313 301 27 0
-300 -27 313 0
-313 301 300 0
-302 314 0
-314 302 27 0
-301 -27 314 0
-314 302 301 0
-303 315 0
-315 303 27 0
-302 -27 315 0
-315 303 302 0
-304 316 0
-316 304 29 0
-305 317 0
-317 305 29 0
-304 -29 317 0
-317 305 304 0
-306 318 0
-318 306 29 0
-305 -29 318 0
-318 306 305 0
-307 319 0
-319 307 29 0
-306 -29 319 0
-319 307 306 0
-308 320 0
-320 308 29 0
-307 -29 320 0
-320 308 307 0
-309 321 0
-321 309 29 0
-308 -29 321 0
-321 309 308 0
-310 322 0
-322 310 29 0
-309 -29 322 0
-322 310 309 0
-311 323 0
-323 311 29 0
-310 -29 323 0
-323 311 310 0
-312 324 0
-324 312 29 0
-311 -29 324 0
-324 312 311 0
-313 325 0
-325 313 29 0
-312 -29 325 0
-325 313 312 0
-314 326 0
-326 314 29 0
-313 -29 326 0
-326 314 313 0
-315 327 0
-327 315 29 0
-314 -29 327 0
-327 315 314 0
-316 328 0
-328 316 31 0
-317 329 0
-329 317 31 0
-316 -31 329 0
-329 317 316 0
-318 330 0
-330 318 31 0
-317 -31 330 0
-330 318 317 0
-319 331 0
-331 319 31 0
-318 -31 331 0
-331 319 318 0
-320 332 0
-332 320 31 0
-319 -31 332 0
-332 320 319 0
-321 333 0
-333 321 31 0
-320 -31 333 0
-333 321 320 0
-322 334 0
-334 322 31 0
-321 -31 334 0
-334 322 321 0
-323 335 0
-335 323 31 0
-322 -31 335 0
-335 323 322 0
-324 336 0
-336 324 31 0
-323 -31 336 0
-336 324 323 0
-325 337 0
-337 325 31 0
-324 -31 337 0
-337 325 324 0
-326 338 0
-338 326 31 0
-325 -31 338 0
-338 326 325 0
-327 339 0
-339 327 31 0
-326 -31 339 0
-339 327 326 0
-328 340 0
-340 328 33 0
-329 341 0
-341 329 33 0
-328 -33 341 0
-341 329 328 0
-330 342 0
-342 330 33 0
-329 -33 342 0
-342 330 329 0
-331 343 0
-343 331 33 0
-330 -33 343 0
-343 331 330 0
-332 344 0
-344 332 33 0
-331 -33 344 0
-344 332 331 0
-333 345 0
-345 333 33 0
-332 -33 345 0
-345 333 332 0
-334 346 0
-346 334 33 0
-333 -33 346 0
-346 334 333 0
-335 347 0
-347 335 33 0
-334 -33 347 0
-347 335 334 0
-336 348 0
-348 336 33 0
-335 -33 348 0
-348 336 335 0
-337 349 0
-349 337 33 0
-336 -33 349 0
-349 337 336 0
-338 350 0
-350 338 33 0
-337 -33 350 0
-350 338 337 0
-339 351 0
-351 339 33 0
-338 -33 351 0
-351 339 338 0
-340 352 0
-352 340 35 0
-341 353 0
-353 341 35 0
-340 -35 353 0
-353 341 340 0
-342 354 0
-354 342 35 0
-341 -35 354 0
-354 342 341 0
-343 355 0
-355 343 35 0
-342 -35 355 0
-355 343 342 0
-344 356 0
-356 344 35 0
-343 -35 356 0
-356 344 343 0
-345 357 0
-357 345 35 0
-344 -35 357 0
-357 345 344 0
-346 358 0
-358 346 35 0
-345 -35 358 0
-358 346 345 0
-347 359 0
-359 347 35 0
-346 -35 359 0
-359 347 346 0
-348 360 0
-360 348 35 0
-347 -35 360 0
-360 348 347 0
-349 361 0
-361 349 35 0
-348 -35 361 0
-361 349 348 0
-350 362 0
-362 350 35 0
-349 -35 362 0
-362 350 349 0
-351 363 0
-363 351 35 0
-350 -35 363 0
-363 351 350 0
-352 364 0
-364 352 37 0
-353 365 0
-365 353 37 0
-352 -37 365 0
-365 353 352 0
-354 366 0
-366 354 37 0
-353 -37 366 0
-366 354 353 0
-355 367 0
-367 355 37 0
-354 -37 367 0
-367 355 354 0
-356 368 0
-368 356 37 0
-355 -37 368 0
-368 356 355 0
-357 369 0
-369 357 37 0
-356 -37 369 0
-369 357 356 0
-358 370 0
-370 358 37 0
-357 -37 370 0
-370 358 357 0
-359 371 0
-371 359 37 0
-358 -37 371 0
-371 359 358 0
-360 372 0
-372 360 37 0
-359 -37 372 0
-372 360 359 0
-361 373 0
-373 361 37 0
-360 -37 373 0
-373 361 360 0
-362 374 0
-374 362 37 0
-361 -37 374 0
-374 362 361 0
-363 375 0
-375 363 37 0
-362 -37 375 0
-375 363 362 0
-364 376 0
-376 364 39 0
-365 377 0
-377 365 39 0
-364 -39 377 0
-377 365 364 0
-366 378 0
-378 366 39 0
-365 -39 378 0
-378 366 365 0
-367 379 0
-379 367 39 0
-366 -39 379 0
-379 367 366 0
-368 380 0
-380 368 39 0
-367 -39 380 0
-380 368 367 0
-369 381 0
-381 369 39 0
-368 -39 381 0
-381 369 368 0
-370 382 0
-382 370 39 0
-369 -39 382 0
-382 370 369 0
-371 383 0
-383 371 39 0
-370 -39 383 0
-383 371 370 0
-372 384 0
-384 372 39 0
-371 -39 384 0
-384 372 371 0
-373 385 0
-385 373 39 0
-372 -39 385 0
-385 373 372 0
-374 386 0
-386 374 39 0
-373 -39 386 0
-386 374 373 0
-375 387 0
-387 375 39 0
-374 -39 387 0
-387 375 374 0
-376 388 0
-388 376 41 0
-377 389 0
-389 377 41 0
-376 -41 389 0
-389 377 376 0
-378 390 0
-390 378 41 0
-377 -41 390 0
-390 378 377 0
-379 391 0
-391 379 41 0
-378 -41 391 0
-391 379 378 0
-380 392 0
-392 380 41 0
-379 -41 392 0
-392 380 379 0
-381 393 0
-393 381 41 0
-380 -41 393 0
-393 381 380 0
-382 394 0
-394 382 41 0
-381 -41 394 0
-394 382 381 0
-383 395 0
-395 383 41 0
-382 -41 395 0
-395 383 382 0
-384 396 0
-396 384 41 0
-383 -41 396 0
-396 384 383 0
-385 397 0
-397 385 41 0
-384 -41 397 0
-397 385 384 0
-386 398 0
-398 386 41 0
-385 -41 398 0
-398 386 385 0
-387 399 0
-399 387 41 0
-386 -41 399 0
-399 387 386 0
148 0
-159 0
-171 0
-183 0
-195 0
-207 0
-219 0
-231 0
-243 0
-255 0
-267 0
-279 0
-291 0
-303 0
-315 0
-327 0
-339 0
-351 0
-363 0
-375 0
-387 0
-399 0
398 0
c Variable for even degree
-399 -1 0
399 1 0
-400 -1 -399 0
-400 1 399 0
400 1 -399 0
400 -1 399 0
-401 -3 -400 0
-401 3 400 0
401 3 -400 0
401 -3 400 0
-402 -5 -401 0
-402 5 401 0
402 5 -401 0
402 -5 401 0
-403 -7 -402 0
-403 7 402 0
403 7 -402 0
403 -7 402 0
-404 -9 -403 0
-404 9 403 0
404 9 -403 0
404 -9 403 0
-405 -11 -404 0
-405 11 404 0
405 11 -404 0
405 -11 404 0
-406 1 0
406 -1 0
-407 -13 -406 0
-407 13 406 0
407 13 -406 0
407 -13 406 0
-408 -15 -407 0
-408 15 407 0
408 15 -407 0
408 -15 407 0
-409 -17 -408 0
-409 17 408 0
409 17 -408 0
409 -17 408 0
-410 -19 -409 0
-410 19 409 0
410 19 -409 0
410 -19 409 0
-411 -21 -410 0
-411 21 410 0
411 21 -410 0
411 -21 410 0
-412 3 0
412 -3 0
-413 -13 -412 0
-413 13 412 0
413 13 -412 0
413 -13 412 0
-414 -23 -413 0
-414 23 413 0
414 23 -413 0
414 -23 413 0
-415 -25 -414 0
-415 25 414 0
415 25 -414 0
415 -25 414 0
-416 -27 -415 0
-416 27 415 0
416 27 -415 0
416 -27 415 0
-417 -29 -416 0
-417 29 416 0
417 29 -416 0
417 -29 416 0
-418 5 0
418 -5 0
-419 -15 -418 0
-419 15 418 0
419 15 -418 0
419 -15 418 0
-420 -23 -419 0
-420 23 419 0
420 23 -419 0
420 -23 419 0
-421 -31 -420 0
-421 31 420 0
421 31 -420 0
421 -31 420 0
-422 -33 -421 0
-422 33 421 0
422 33 -421 0
422 -33 421 0
-423 -35 -422 0
-423 35 422 0
423 35 -422 0
423 -35 422 0
-424 7 0
424 -7 0
-425 -17 -424 0
-425 17 424 0
425 17 -424 0
425 -17 424 0
-426 -25 -425 0
-426 25 425 0
426 25 -425 0
426 -25 425 0
-427 -31 -426 0
-427 31 426 0
427 31 -426 0
427 -31 426 0
-428 -37 -427 0
-428 37 427 0
428 37 -427 0
428 -37 427 0
-429 -39 -428 0
-429 39 428 0
429 39 -428 0
429 -39 428 0
-430 9 0
430 -9 0
-431 -19 -430 0
-431 19 430 0
431 19 -430 0
431 -19 430 0
-432 -27 -431 0
-432 27 431 0
432 27 -431 0
432 -27 431 0
-433 -33 -432 0
-433 33 432 0
433 33 -432 0
433 -33 432 0
-434 -37 -433 0
-434 37 433 0
434 37 -433 0
434 -37 433 0
-435 -41 -434 0
-435 41 434 0
435 41 -434 0
435 -41 434 0
-436 11 0
436 -11 0
-437 -21 -436 0
-437 21 436 0
437 21 -436 0
437 -21 436 0
-438 -29 -437 0
-438 29 437 0
438 29 -437 0
438 -29 437 0
-439 -35 -438 0
-439 35 438 0
439 35 -438 0
439 -35 438 0
-440 -39 -439 0
-440 39 439 0
440 39 -439 0
440 -39 439 0
-441 -41 -440 0
-441 41 440 0
441 41 -440 0
441 -41 440 0
-405 0
-411 0
-417 0
-423 0
-429 0
-435 0
-441 0
